;; Produced with Z3_solver_to_string()
(declare-fun sea.sp0_0 () (_ BitVec 64))
(declare-fun main@%_7_0 () (_ BitVec 8))
(declare-fun main@%_4_0 () (_ BitVec 8))
(declare-fun main@%_0_0 () (_ BitVec 8))
(declare-fun main@%_28_0 () (_ BitVec 8))
(declare-fun main@%_38_0 () (_ BitVec 8))
(declare-fun main@%_35_0 () (_ BitVec 8))
(declare-fun main@%_18_0 () (_ BitVec 16))
(declare-fun main@%_15_0 () (_ BitVec 8))
(declare-fun main@%_81_0 () (_ BitVec 8))
(declare-fun main@%_91_0 () (_ BitVec 8))
(declare-fun main@%_88_0 () (_ BitVec 8))
(declare-fun main@%_62_0 () (_ BitVec 8))
(declare-fun main@%_71_0 () (_ BitVec 16))
(declare-fun main@%_135_0 () (_ BitVec 8))
(declare-fun main@%_145_0 () (_ BitVec 8))
(declare-fun main@%_142_0 () (_ BitVec 8))
(declare-fun main@%_116_0 () (_ BitVec 8))
(declare-fun main@%_125_0 () (_ BitVec 16))
(declare-fun main@%_189_0 () (_ BitVec 8))
(declare-fun main@%_200_0 () (_ BitVec 8))
(declare-fun main@%_197_0 () (_ BitVec 8))
(declare-fun main@%_170_0 () (_ BitVec 8))
(declare-fun main@%_179_0 () (_ BitVec 16))
(declare-fun main@%_303_0 () (_ BitVec 8))
(declare-fun main@%_314_0 () (_ BitVec 8))
(declare-fun main@%_311_0 () (_ BitVec 8))
(declare-fun main@%_226_0 () (_ BitVec 8))
(declare-fun main@%_235_0 () (_ BitVec 16))
(declare-fun main@%_363_0 () (_ BitVec 8))
(declare-fun main@%_374_0 () (_ BitVec 8))
(declare-fun main@%_371_0 () (_ BitVec 8))
(declare-fun main@%_340_0 () (_ BitVec 8))
(declare-fun main@%_349_0 () (_ BitVec 16))
(declare-fun main@%_423_0 () (_ BitVec 8))
(declare-fun main@%_434_0 () (_ BitVec 8))
(declare-fun main@%_431_0 () (_ BitVec 8))
(declare-fun main@%_400_0 () (_ BitVec 8))
(declare-fun main@%_409_0 () (_ BitVec 16))
(declare-fun main@%_483_0 () (_ BitVec 8))
(declare-fun main@%_494_0 () (_ BitVec 8))
(declare-fun main@%_491_0 () (_ BitVec 8))
(declare-fun main@%_460_0 () (_ BitVec 8))
(declare-fun main@%_469_0 () (_ BitVec 16))
(declare-fun main@%_543_0 () (_ BitVec 8))
(declare-fun main@%_554_0 () (_ BitVec 8))
(declare-fun main@%_551_0 () (_ BitVec 8))
(declare-fun main@%_520_0 () (_ BitVec 8))
(declare-fun main@%_529_0 () (_ BitVec 16))
(declare-fun main@%_603_0 () (_ BitVec 8))
(declare-fun main@%_614_0 () (_ BitVec 8))
(declare-fun main@%_611_0 () (_ BitVec 8))
(declare-fun main@%_580_0 () (_ BitVec 8))
(declare-fun main@%_589_0 () (_ BitVec 16))
(declare-fun main@%_663_0 () (_ BitVec 8))
(declare-fun main@%_674_0 () (_ BitVec 8))
(declare-fun main@%_671_0 () (_ BitVec 8))
(declare-fun main@%_640_0 () (_ BitVec 8))
(declare-fun main@%_649_0 () (_ BitVec 16))
(declare-fun main@%_723_0 () (_ BitVec 8))
(declare-fun main@%_734_0 () (_ BitVec 8))
(declare-fun main@%_731_0 () (_ BitVec 8))
(declare-fun main@%_700_0 () (_ BitVec 8))
(declare-fun main@%_709_0 () (_ BitVec 16))
(declare-fun main@%_783_0 () (_ BitVec 8))
(declare-fun main@%_794_0 () (_ BitVec 8))
(declare-fun main@%_791_0 () (_ BitVec 8))
(declare-fun main@%_760_0 () (_ BitVec 8))
(declare-fun main@%_769_0 () (_ BitVec 16))
(declare-fun main@%_843_0 () (_ BitVec 8))
(declare-fun main@%_854_0 () (_ BitVec 8))
(declare-fun main@%_851_0 () (_ BitVec 8))
(declare-fun main@%_820_0 () (_ BitVec 8))
(declare-fun main@%_829_0 () (_ BitVec 16))
(declare-fun main@%_903_0 () (_ BitVec 8))
(declare-fun main@%_914_0 () (_ BitVec 8))
(declare-fun main@%_911_0 () (_ BitVec 8))
(declare-fun main@%_880_0 () (_ BitVec 8))
(declare-fun main@%_889_0 () (_ BitVec 16))
(declare-fun main@%_963_0 () (_ BitVec 8))
(declare-fun main@%_974_0 () (_ BitVec 8))
(declare-fun main@%_971_0 () (_ BitVec 8))
(declare-fun main@%_940_0 () (_ BitVec 8))
(declare-fun main@%_949_0 () (_ BitVec 16))
(declare-fun main@%_1023_0 () (_ BitVec 8))
(declare-fun main@%_1034_0 () (_ BitVec 8))
(declare-fun main@%_1031_0 () (_ BitVec 8))
(declare-fun main@%_1000_0 () (_ BitVec 8))
(declare-fun main@%_1009_0 () (_ BitVec 16))
(declare-fun main@%_1083_0 () (_ BitVec 8))
(declare-fun main@%_1094_0 () (_ BitVec 8))
(declare-fun main@%_1091_0 () (_ BitVec 8))
(declare-fun main@%_1060_0 () (_ BitVec 8))
(declare-fun main@%_1069_0 () (_ BitVec 16))
(declare-fun main@%_1129_0 () (_ BitVec 8))
(declare-fun main@%_1135_0 () (_ BitVec 8))
(declare-fun main@%_1132_0 () (_ BitVec 8))
(declare-fun main@%_1120_0 () (_ BitVec 8))
(declare-fun main@%_1123_0 () (_ BitVec 16))
(assert (= #b000 ((_ extract 2 0) sea.sp0_0)))
(assert (bvule sea.sp0_0 #x00000000c0000000))
(assert (bvuge sea.sp0_0 #x00000000bf700000))
(assert (let ((a!1 (or (= ((_ extract 0 0) main@%_4_0) #b1)
               (xor (= ((_ extract 0 0) main@%_7_0) #b1) true)))
      (a!6 (or (= (bvand ((_ extract 3 0) main@%_28_0) #xd) #xd)
               (= (bvand ((_ extract 3 0) main@%_28_0) #xe) #xa)))
      (a!7 (or (= ((_ extract 0 0) main@%_35_0) #b1)
               (xor (= ((_ extract 0 0) main@%_38_0) #b1) true)))
      (a!12 (or (= ((_ extract 3 0) main@%_28_0) #xf)
                (= (bvand ((_ extract 3 0) main@%_28_0) #xe) #x8)))
      (a!16 (or (= (bvand ((_ extract 3 0) main@%_81_0) #xd) #xd)
                (= (bvand ((_ extract 3 0) main@%_81_0) #xe) #xa)))
      (a!17 (or (= ((_ extract 0 0) main@%_88_0) #b1)
                (xor (= ((_ extract 0 0) main@%_91_0) #b1) true)))
      (a!22 (or (= ((_ extract 3 0) main@%_81_0) #xf)
                (= (bvand ((_ extract 3 0) main@%_81_0) #xe) #x8)))
      (a!26 (or (= (bvand ((_ extract 3 0) main@%_135_0) #xd) #xd)
                (= (bvand ((_ extract 3 0) main@%_135_0) #xe) #xa)))
      (a!27 (or (= ((_ extract 0 0) main@%_142_0) #b1)
                (xor (= ((_ extract 0 0) main@%_145_0) #b1) true)))
      (a!32 (or (= ((_ extract 3 0) main@%_135_0) #xf)
                (= (bvand ((_ extract 3 0) main@%_135_0) #xe) #x8)))
      (a!37 (or (= (bvand ((_ extract 3 0) main@%_189_0) #xd) #xd)
                (= (bvand ((_ extract 3 0) main@%_189_0) #xe) #xa)))
      (a!38 (or (= ((_ extract 0 0) main@%_197_0) #b1)
                (xor (= ((_ extract 0 0) main@%_200_0) #b1) true)))
      (a!43 (or (= ((_ extract 3 0) main@%_189_0) #xf)
                (= (bvand ((_ extract 3 0) main@%_189_0) #xe) #x8)))
      (a!47 (or (= (bvand ((_ extract 3 0) main@%_303_0) #xd) #xd)
                (= (bvand ((_ extract 3 0) main@%_303_0) #xe) #xa)))
      (a!48 (or (= ((_ extract 0 0) main@%_311_0) #b1)
                (xor (= ((_ extract 0 0) main@%_314_0) #b1) true)))
      (a!53 (or (= ((_ extract 3 0) main@%_303_0) #xf)
                (= (bvand ((_ extract 3 0) main@%_303_0) #xe) #x8)))
      (a!57 (or (= (bvand ((_ extract 3 0) main@%_363_0) #xd) #xd)
                (= (bvand ((_ extract 3 0) main@%_363_0) #xe) #xa)))
      (a!58 (or (= ((_ extract 0 0) main@%_371_0) #b1)
                (xor (= ((_ extract 0 0) main@%_374_0) #b1) true)))
      (a!63 (or (= ((_ extract 3 0) main@%_363_0) #xf)
                (= (bvand ((_ extract 3 0) main@%_363_0) #xe) #x8)))
      (a!68 (or (= (bvand ((_ extract 3 0) main@%_423_0) #xd) #xd)
                (= (bvand ((_ extract 3 0) main@%_423_0) #xe) #xa)))
      (a!69 (or (= ((_ extract 0 0) main@%_431_0) #b1)
                (xor (= ((_ extract 0 0) main@%_434_0) #b1) true)))
      (a!74 (or (= ((_ extract 3 0) main@%_423_0) #xf)
                (= (bvand ((_ extract 3 0) main@%_423_0) #xe) #x8)))
      (a!78 (or (= (bvand ((_ extract 3 0) main@%_483_0) #xd) #xd)
                (= (bvand ((_ extract 3 0) main@%_483_0) #xe) #xa)))
      (a!79 (or (= ((_ extract 0 0) main@%_491_0) #b1)
                (xor (= ((_ extract 0 0) main@%_494_0) #b1) true)))
      (a!84 (or (= ((_ extract 3 0) main@%_483_0) #xf)
                (= (bvand ((_ extract 3 0) main@%_483_0) #xe) #x8)))
      (a!88 (or (= (bvand ((_ extract 3 0) main@%_543_0) #xd) #xd)
                (= (bvand ((_ extract 3 0) main@%_543_0) #xe) #xa)))
      (a!89 (or (= ((_ extract 0 0) main@%_551_0) #b1)
                (xor (= ((_ extract 0 0) main@%_554_0) #b1) true)))
      (a!94 (or (= ((_ extract 3 0) main@%_543_0) #xf)
                (= (bvand ((_ extract 3 0) main@%_543_0) #xe) #x8)))
      (a!99 (or (= (bvand ((_ extract 3 0) main@%_603_0) #xd) #xd)
                (= (bvand ((_ extract 3 0) main@%_603_0) #xe) #xa)))
      (a!100 (or (= ((_ extract 0 0) main@%_611_0) #b1)
                 (xor (= ((_ extract 0 0) main@%_614_0) #b1) true)))
      (a!105 (or (= ((_ extract 3 0) main@%_603_0) #xf)
                 (= (bvand ((_ extract 3 0) main@%_603_0) #xe) #x8)))
      (a!109 (or (= (bvand ((_ extract 3 0) main@%_663_0) #xd) #xd)
                 (= (bvand ((_ extract 3 0) main@%_663_0) #xe) #xa)))
      (a!110 (or (= ((_ extract 0 0) main@%_671_0) #b1)
                 (xor (= ((_ extract 0 0) main@%_674_0) #b1) true)))
      (a!115 (or (= ((_ extract 3 0) main@%_663_0) #xf)
                 (= (bvand ((_ extract 3 0) main@%_663_0) #xe) #x8)))
      (a!119 (or (= (bvand ((_ extract 3 0) main@%_723_0) #xd) #xd)
                 (= (bvand ((_ extract 3 0) main@%_723_0) #xe) #xa)))
      (a!120 (or (= ((_ extract 0 0) main@%_731_0) #b1)
                 (xor (= ((_ extract 0 0) main@%_734_0) #b1) true)))
      (a!125 (or (= ((_ extract 3 0) main@%_723_0) #xf)
                 (= (bvand ((_ extract 3 0) main@%_723_0) #xe) #x8)))
      (a!130 (or (= (bvand ((_ extract 3 0) main@%_783_0) #xd) #xd)
                 (= (bvand ((_ extract 3 0) main@%_783_0) #xe) #xa)))
      (a!131 (or (= ((_ extract 0 0) main@%_791_0) #b1)
                 (xor (= ((_ extract 0 0) main@%_794_0) #b1) true)))
      (a!136 (or (= ((_ extract 3 0) main@%_783_0) #xf)
                 (= (bvand ((_ extract 3 0) main@%_783_0) #xe) #x8)))
      (a!140 (or (= (bvand ((_ extract 3 0) main@%_843_0) #xd) #xd)
                 (= (bvand ((_ extract 3 0) main@%_843_0) #xe) #xa)))
      (a!141 (or (= ((_ extract 0 0) main@%_851_0) #b1)
                 (xor (= ((_ extract 0 0) main@%_854_0) #b1) true)))
      (a!146 (or (= ((_ extract 3 0) main@%_843_0) #xf)
                 (= (bvand ((_ extract 3 0) main@%_843_0) #xe) #x8)))
      (a!150 (or (= (bvand ((_ extract 3 0) main@%_903_0) #xd) #xd)
                 (= (bvand ((_ extract 3 0) main@%_903_0) #xe) #xa)))
      (a!151 (or (= ((_ extract 0 0) main@%_911_0) #b1)
                 (xor (= ((_ extract 0 0) main@%_914_0) #b1) true)))
      (a!156 (or (= ((_ extract 3 0) main@%_903_0) #xf)
                 (= (bvand ((_ extract 3 0) main@%_903_0) #xe) #x8)))
      (a!161 (or (= (bvand ((_ extract 3 0) main@%_963_0) #xd) #xd)
                 (= (bvand ((_ extract 3 0) main@%_963_0) #xe) #xa)))
      (a!162 (or (= ((_ extract 0 0) main@%_971_0) #b1)
                 (xor (= ((_ extract 0 0) main@%_974_0) #b1) true)))
      (a!167 (or (= ((_ extract 3 0) main@%_963_0) #xf)
                 (= (bvand ((_ extract 3 0) main@%_963_0) #xe) #x8)))
      (a!171 (or (= (bvand ((_ extract 3 0) main@%_1023_0) #xd) #xd)
                 (= (bvand ((_ extract 3 0) main@%_1023_0) #xe) #xa)))
      (a!172 (or (= ((_ extract 0 0) main@%_1031_0) #b1)
                 (xor (= ((_ extract 0 0) main@%_1034_0) #b1) true)))
      (a!177 (or (= ((_ extract 3 0) main@%_1023_0) #xf)
                 (= (bvand ((_ extract 3 0) main@%_1023_0) #xe) #x8)))
      (a!181 (or (= (bvand ((_ extract 3 0) main@%_1083_0) #xd) #xd)
                 (= (bvand ((_ extract 3 0) main@%_1083_0) #xe) #xa)))
      (a!182 (or (= ((_ extract 0 0) main@%_1091_0) #b1)
                 (xor (= ((_ extract 0 0) main@%_1094_0) #b1) true)))
      (a!187 (or (= ((_ extract 3 0) main@%_1083_0) #xf)
                 (= (bvand ((_ extract 3 0) main@%_1083_0) #xe) #x8)))
      (a!191 (or (= (bvand ((_ extract 3 0) main@%_1129_0) #xd) #xd)
                 (= (bvand ((_ extract 3 0) main@%_1129_0) #xe) #xa)))
      (a!192 (or (= ((_ extract 0 0) main@%_1132_0) #b1)
                 (xor (= ((_ extract 0 0) main@%_1135_0) #b1) true))))
(let ((a!2 (or (= (bvand ((_ extract 3 0) main@%_0_0) #xe) #x4)
               (and (= ((_ extract 3 0) main@%_0_0) #x1) a!1)))
      (a!3 (or (= ((_ extract 3 0) main@%_0_0) #xc)
               (and (= ((_ extract 3 0) main@%_0_0) #x4) a!1)
               (xor (= ((_ extract 0 0) main@%_15_0) #b1) true)))
      (a!8 (or (= (bvand ((_ extract 3 0) main@%_28_0) #xe) #x4)
               (and (= ((_ extract 3 0) main@%_28_0) #x1) a!7)))
      (a!11 (or (= ((_ extract 3 0) main@%_28_0) #xc)
                (and (= ((_ extract 3 0) main@%_28_0) #x4) a!7)
                (xor (= ((_ extract 0 0) main@%_62_0) #b1) true)))
      (a!18 (or (= (bvand ((_ extract 3 0) main@%_81_0) #xe) #x4)
                (and (= ((_ extract 3 0) main@%_81_0) #x1) a!17)))
      (a!21 (or (= ((_ extract 3 0) main@%_81_0) #xc)
                (and (= ((_ extract 3 0) main@%_81_0) #x4) a!17)
                (xor (= ((_ extract 0 0) main@%_116_0) #b1) true)))
      (a!28 (or (= (bvand ((_ extract 3 0) main@%_135_0) #xe) #x4)
                (and (= ((_ extract 3 0) main@%_135_0) #x1) a!27)))
      (a!31 (or (= ((_ extract 3 0) main@%_135_0) #xc)
                (and (= ((_ extract 3 0) main@%_135_0) #x4) a!27)
                (xor (= ((_ extract 0 0) main@%_170_0) #b1) true)))
      (a!39 (or (= (bvand ((_ extract 3 0) main@%_189_0) #xe) #x4)
                (and (= ((_ extract 3 0) main@%_189_0) #x1) a!38)))
      (a!42 (or (= ((_ extract 3 0) main@%_189_0) #xc)
                (and (= ((_ extract 3 0) main@%_189_0) #x4) a!38)
                (xor (= ((_ extract 0 0) main@%_226_0) #b1) true)))
      (a!49 (or (= (bvand ((_ extract 3 0) main@%_303_0) #xe) #x4)
                (and (= ((_ extract 3 0) main@%_303_0) #x1) a!48)))
      (a!52 (or (= ((_ extract 3 0) main@%_303_0) #xc)
                (and (= ((_ extract 3 0) main@%_303_0) #x4) a!48)
                (xor (= ((_ extract 0 0) main@%_340_0) #b1) true)))
      (a!59 (or (= (bvand ((_ extract 3 0) main@%_363_0) #xe) #x4)
                (and (= ((_ extract 3 0) main@%_363_0) #x1) a!58)))
      (a!62 (or (= ((_ extract 3 0) main@%_363_0) #xc)
                (and (= ((_ extract 3 0) main@%_363_0) #x4) a!58)
                (xor (= ((_ extract 0 0) main@%_400_0) #b1) true)))
      (a!70 (or (= (bvand ((_ extract 3 0) main@%_423_0) #xe) #x4)
                (and (= ((_ extract 3 0) main@%_423_0) #x1) a!69)))
      (a!73 (or (= ((_ extract 3 0) main@%_423_0) #xc)
                (and (= ((_ extract 3 0) main@%_423_0) #x4) a!69)
                (xor (= ((_ extract 0 0) main@%_460_0) #b1) true)))
      (a!80 (or (= (bvand ((_ extract 3 0) main@%_483_0) #xe) #x4)
                (and (= ((_ extract 3 0) main@%_483_0) #x1) a!79)))
      (a!83 (or (= ((_ extract 3 0) main@%_483_0) #xc)
                (and (= ((_ extract 3 0) main@%_483_0) #x4) a!79)
                (xor (= ((_ extract 0 0) main@%_520_0) #b1) true)))
      (a!90 (or (= (bvand ((_ extract 3 0) main@%_543_0) #xe) #x4)
                (and (= ((_ extract 3 0) main@%_543_0) #x1) a!89)))
      (a!93 (or (= ((_ extract 3 0) main@%_543_0) #xc)
                (and (= ((_ extract 3 0) main@%_543_0) #x4) a!89)
                (xor (= ((_ extract 0 0) main@%_580_0) #b1) true)))
      (a!101 (or (= (bvand ((_ extract 3 0) main@%_603_0) #xe) #x4)
                 (and (= ((_ extract 3 0) main@%_603_0) #x1) a!100)))
      (a!104 (or (= ((_ extract 3 0) main@%_603_0) #xc)
                 (and (= ((_ extract 3 0) main@%_603_0) #x4) a!100)
                 (xor (= ((_ extract 0 0) main@%_640_0) #b1) true)))
      (a!111 (or (= (bvand ((_ extract 3 0) main@%_663_0) #xe) #x4)
                 (and (= ((_ extract 3 0) main@%_663_0) #x1) a!110)))
      (a!114 (or (= ((_ extract 3 0) main@%_663_0) #xc)
                 (and (= ((_ extract 3 0) main@%_663_0) #x4) a!110)
                 (xor (= ((_ extract 0 0) main@%_700_0) #b1) true)))
      (a!121 (or (= (bvand ((_ extract 3 0) main@%_723_0) #xe) #x4)
                 (and (= ((_ extract 3 0) main@%_723_0) #x1) a!120)))
      (a!124 (or (= ((_ extract 3 0) main@%_723_0) #xc)
                 (and (= ((_ extract 3 0) main@%_723_0) #x4) a!120)
                 (xor (= ((_ extract 0 0) main@%_760_0) #b1) true)))
      (a!132 (or (= (bvand ((_ extract 3 0) main@%_783_0) #xe) #x4)
                 (and (= ((_ extract 3 0) main@%_783_0) #x1) a!131)))
      (a!135 (or (= ((_ extract 3 0) main@%_783_0) #xc)
                 (and (= ((_ extract 3 0) main@%_783_0) #x4) a!131)
                 (xor (= ((_ extract 0 0) main@%_820_0) #b1) true)))
      (a!142 (or (= (bvand ((_ extract 3 0) main@%_843_0) #xe) #x4)
                 (and (= ((_ extract 3 0) main@%_843_0) #x1) a!141)))
      (a!145 (or (= ((_ extract 3 0) main@%_843_0) #xc)
                 (and (= ((_ extract 3 0) main@%_843_0) #x4) a!141)
                 (xor (= ((_ extract 0 0) main@%_880_0) #b1) true)))
      (a!152 (or (= (bvand ((_ extract 3 0) main@%_903_0) #xe) #x4)
                 (and (= ((_ extract 3 0) main@%_903_0) #x1) a!151)))
      (a!155 (or (= ((_ extract 3 0) main@%_903_0) #xc)
                 (and (= ((_ extract 3 0) main@%_903_0) #x4) a!151)
                 (xor (= ((_ extract 0 0) main@%_940_0) #b1) true)))
      (a!163 (or (= (bvand ((_ extract 3 0) main@%_963_0) #xe) #x4)
                 (and (= ((_ extract 3 0) main@%_963_0) #x1) a!162)))
      (a!166 (or (= ((_ extract 3 0) main@%_963_0) #xc)
                 (and (= ((_ extract 3 0) main@%_963_0) #x4) a!162)
                 (xor (= ((_ extract 0 0) main@%_1000_0) #b1) true)))
      (a!173 (or (= (bvand ((_ extract 3 0) main@%_1023_0) #xe) #x4)
                 (and (= ((_ extract 3 0) main@%_1023_0) #x1) a!172)))
      (a!176 (or (= ((_ extract 3 0) main@%_1023_0) #xc)
                 (and (= ((_ extract 3 0) main@%_1023_0) #x4) a!172)
                 (xor (= ((_ extract 0 0) main@%_1060_0) #b1) true)))
      (a!183 (or (= (bvand ((_ extract 3 0) main@%_1083_0) #xe) #x4)
                 (and (= ((_ extract 3 0) main@%_1083_0) #x1) a!182)))
      (a!186 (or (= ((_ extract 3 0) main@%_1083_0) #xc)
                 (and (= ((_ extract 3 0) main@%_1083_0) #x4) a!182)
                 (xor (= ((_ extract 0 0) main@%_1120_0) #b1) true)))
      (a!193 (or (= (bvand ((_ extract 3 0) main@%_1129_0) #xe) #x4)
                 (and (= ((_ extract 3 0) main@%_1129_0) #x1) a!192))))
(let ((a!4 (not (= (ite a!3 ((_ extract 11 0) main@%_18_0) #x000) #x000)))
      (a!9 (ite (not (= ((_ extract 3 0) main@%_28_0) #x0)) a!2 false)))
(let ((a!5 (and (or (= ((_ extract 3 0) main@%_28_0) #x8)
                    (= ((_ extract 3 0) main@%_28_0) #xf))
                (xor a!4 true)))
      (a!13 (ite (and a!4 a!12 (= ((_ extract 0 0) main@%_62_0) #b1)) #b1 #b0)))
(let ((a!10 (ite (and a!2 (or a!5 (and a!6 a!7)))
                 ((_ sign_extend 2) (ite (xor a!2 true) #b1 #b0))
                 (ite a!8 (ite a!2 #b010 #b001) (ite a!9 #b001 #b000))))
      (a!14 (ite a!11
                 ((_ extract 11 0) main@%_71_0)
                 (bvadd (ite a!3 ((_ extract 11 0) main@%_18_0) #x000)
                        ((_ sign_extend 11) a!13)))))
(let ((a!15 (and (or (= ((_ extract 3 0) main@%_81_0) #x8)
                     (= ((_ extract 3 0) main@%_81_0) #xf))
                 (xor (not (= a!14 #x000)) true)))
      (a!19 (ite a!18
                 (bvadd a!10 #b001)
                 (ite (= ((_ extract 3 0) main@%_81_0) #x0) #b000 a!10)))
      (a!23 (ite (and (not (= a!14 #x000))
                      a!22
                      (= ((_ extract 0 0) main@%_116_0) #b1))
                 #b1
                 #b0)))
(let ((a!20 (ite (and (not (= a!10 #b000)) (or a!15 (and a!16 a!17)))
                 (bvadd a!10 #b111)
                 a!19))
      (a!24 (= (ite a!21
                    ((_ extract 11 0) main@%_125_0)
                    (bvadd a!14 ((_ sign_extend 11) a!23)))
               #x000)))
(let ((a!25 (and (or (= ((_ extract 3 0) main@%_135_0) #x8)
                     (= ((_ extract 3 0) main@%_135_0) #xf))
                 (xor (not a!24) true)))
      (a!29 (ite a!28
                 (bvadd a!20 #b001)
                 (ite (= ((_ extract 3 0) main@%_135_0) #x0) #b000 a!20)))
      (a!33 (ite (and (not a!24) a!32 (= ((_ extract 0 0) main@%_170_0) #b1))
                 #b1
                 #b0)))
(let ((a!30 (ite (and (not (= a!20 #b000)) (or a!25 (and a!26 a!27)))
                 (bvadd a!20 #b111)
                 a!29))
      (a!34 (bvadd (ite a!21
                        ((_ extract 11 0) main@%_125_0)
                        (bvadd a!14 ((_ sign_extend 11) a!23)))
                   ((_ sign_extend 11) a!33))))
(let ((a!35 (not (= (ite a!31 ((_ extract 11 0) main@%_179_0) a!34) #x000)))
      (a!40 (ite (and (not (= a!30 #b101)) a!39)
                 (bvadd a!30 #b001)
                 (ite (= ((_ extract 3 0) main@%_189_0) #x0) #b000 a!30))))
(let ((a!36 (and (or (= ((_ extract 3 0) main@%_189_0) #x8)
                     (= ((_ extract 3 0) main@%_189_0) #xf))
                 (xor a!35 true)))
      (a!44 (ite (and a!35 a!43 (= ((_ extract 0 0) main@%_226_0) #b1)) #b1 #b0)))
(let ((a!41 (ite (and (not (= a!30 #b000)) (or a!36 (and a!37 a!38)))
                 (bvadd a!30 #b111)
                 a!40))
      (a!45 (ite a!42
                 ((_ extract 11 0) main@%_235_0)
                 (bvadd (ite a!31 ((_ extract 11 0) main@%_179_0) a!34)
                        ((_ sign_extend 11) a!44)))))
(let ((a!46 (and (or (= ((_ extract 3 0) main@%_303_0) #x8)
                     (= ((_ extract 3 0) main@%_303_0) #xf))
                 (xor (not (= a!45 #x000)) true)))
      (a!50 (ite (and (not (= a!41 #b101)) a!49)
                 (bvadd a!41 #b001)
                 (ite (= ((_ extract 3 0) main@%_303_0) #x0) #b000 a!41)))
      (a!54 (ite (and (not (= a!45 #x000))
                      a!53
                      (= ((_ extract 0 0) main@%_340_0) #b1))
                 #b1
                 #b0)))
(let ((a!51 (ite (and (not (= a!41 #b000)) (or a!46 (and a!47 a!48)))
                 (bvadd a!41 #b111)
                 a!50))
      (a!55 (= (ite a!52
                    ((_ extract 11 0) main@%_349_0)
                    (bvadd a!45 ((_ sign_extend 11) a!54)))
               #x000)))
(let ((a!56 (and (or (= ((_ extract 3 0) main@%_363_0) #x8)
                     (= ((_ extract 3 0) main@%_363_0) #xf))
                 (xor (not a!55) true)))
      (a!60 (ite (and (not (= a!51 #b101)) a!59)
                 (bvadd a!51 #b001)
                 (ite (= ((_ extract 3 0) main@%_363_0) #x0) #b000 a!51)))
      (a!64 (ite (and (not a!55) a!63 (= ((_ extract 0 0) main@%_400_0) #b1))
                 #b1
                 #b0)))
(let ((a!61 (ite (and (not (= a!51 #b000)) (or a!56 (and a!57 a!58)))
                 (bvadd a!51 #b111)
                 a!60))
      (a!65 (bvadd (ite a!52
                        ((_ extract 11 0) main@%_349_0)
                        (bvadd a!45 ((_ sign_extend 11) a!54)))
                   ((_ sign_extend 11) a!64))))
(let ((a!66 (not (= (ite a!62 ((_ extract 11 0) main@%_409_0) a!65) #x000)))
      (a!71 (ite (and (not (= a!61 #b101)) a!70)
                 (bvadd a!61 #b001)
                 (ite (= ((_ extract 3 0) main@%_423_0) #x0) #b000 a!61))))
(let ((a!67 (and (or (= ((_ extract 3 0) main@%_423_0) #x8)
                     (= ((_ extract 3 0) main@%_423_0) #xf))
                 (xor a!66 true)))
      (a!75 (ite (and a!66 a!74 (= ((_ extract 0 0) main@%_460_0) #b1)) #b1 #b0)))
(let ((a!72 (ite (and (not (= a!61 #b000)) (or a!67 (and a!68 a!69)))
                 (bvadd a!61 #b111)
                 a!71))
      (a!76 (ite a!73
                 ((_ extract 11 0) main@%_469_0)
                 (bvadd (ite a!62 ((_ extract 11 0) main@%_409_0) a!65)
                        ((_ sign_extend 11) a!75)))))
(let ((a!77 (and (or (= ((_ extract 3 0) main@%_483_0) #x8)
                     (= ((_ extract 3 0) main@%_483_0) #xf))
                 (xor (not (= a!76 #x000)) true)))
      (a!81 (ite (and (not (= a!72 #b101)) a!80)
                 (bvadd a!72 #b001)
                 (ite (= ((_ extract 3 0) main@%_483_0) #x0) #b000 a!72)))
      (a!85 (ite (and (not (= a!76 #x000))
                      a!84
                      (= ((_ extract 0 0) main@%_520_0) #b1))
                 #b1
                 #b0)))
(let ((a!82 (ite (and (not (= a!72 #b000)) (or a!77 (and a!78 a!79)))
                 (bvadd a!72 #b111)
                 a!81))
      (a!86 (= (ite a!83
                    ((_ extract 11 0) main@%_529_0)
                    (bvadd a!76 ((_ sign_extend 11) a!85)))
               #x000)))
(let ((a!87 (and (or (= ((_ extract 3 0) main@%_543_0) #x8)
                     (= ((_ extract 3 0) main@%_543_0) #xf))
                 (xor (not a!86) true)))
      (a!91 (ite (and (not (= a!82 #b101)) a!90)
                 (bvadd a!82 #b001)
                 (ite (= ((_ extract 3 0) main@%_543_0) #x0) #b000 a!82)))
      (a!95 (ite (and (not a!86) a!94 (= ((_ extract 0 0) main@%_580_0) #b1))
                 #b1
                 #b0)))
(let ((a!92 (ite (and (not (= a!82 #b000)) (or a!87 (and a!88 a!89)))
                 (bvadd a!82 #b111)
                 a!91))
      (a!96 (bvadd (ite a!83
                        ((_ extract 11 0) main@%_529_0)
                        (bvadd a!76 ((_ sign_extend 11) a!85)))
                   ((_ sign_extend 11) a!95))))
(let ((a!97 (not (= (ite a!93 ((_ extract 11 0) main@%_589_0) a!96) #x000)))
      (a!102 (ite (and (not (= a!92 #b101)) a!101)
                  (bvadd a!92 #b001)
                  (ite (= ((_ extract 3 0) main@%_603_0) #x0) #b000 a!92))))
(let ((a!98 (and (or (= ((_ extract 3 0) main@%_603_0) #x8)
                     (= ((_ extract 3 0) main@%_603_0) #xf))
                 (xor a!97 true)))
      (a!106 (ite (and a!97 a!105 (= ((_ extract 0 0) main@%_640_0) #b1))
                  #b1
                  #b0)))
(let ((a!103 (ite (and (not (= a!92 #b000)) (or a!98 (and a!99 a!100)))
                  (bvadd a!92 #b111)
                  a!102))
      (a!107 (ite a!104
                  ((_ extract 11 0) main@%_649_0)
                  (bvadd (ite a!93 ((_ extract 11 0) main@%_589_0) a!96)
                         ((_ sign_extend 11) a!106)))))
(let ((a!108 (and (or (= ((_ extract 3 0) main@%_663_0) #x8)
                      (= ((_ extract 3 0) main@%_663_0) #xf))
                  (xor (not (= a!107 #x000)) true)))
      (a!112 (ite (and (not (= a!103 #b101)) a!111)
                  (bvadd a!103 #b001)
                  (ite (= ((_ extract 3 0) main@%_663_0) #x0) #b000 a!103)))
      (a!116 (ite (and (not (= a!107 #x000))
                       a!115
                       (= ((_ extract 0 0) main@%_700_0) #b1))
                  #b1
                  #b0)))
(let ((a!113 (ite (and (not (= a!103 #b000)) (or a!108 (and a!109 a!110)))
                  (bvadd a!103 #b111)
                  a!112))
      (a!117 (= (ite a!114
                     ((_ extract 11 0) main@%_709_0)
                     (bvadd a!107 ((_ sign_extend 11) a!116)))
                #x000)))
(let ((a!118 (and (or (= ((_ extract 3 0) main@%_723_0) #x8)
                      (= ((_ extract 3 0) main@%_723_0) #xf))
                  (xor (not a!117) true)))
      (a!122 (ite (and (not (= a!113 #b101)) a!121)
                  (bvadd a!113 #b001)
                  (ite (= ((_ extract 3 0) main@%_723_0) #x0) #b000 a!113)))
      (a!126 (ite (and (not a!117) a!125 (= ((_ extract 0 0) main@%_760_0) #b1))
                  #b1
                  #b0)))
(let ((a!123 (ite (and (not (= a!113 #b000)) (or a!118 (and a!119 a!120)))
                  (bvadd a!113 #b111)
                  a!122))
      (a!127 (bvadd (ite a!114
                         ((_ extract 11 0) main@%_709_0)
                         (bvadd a!107 ((_ sign_extend 11) a!116)))
                    ((_ sign_extend 11) a!126))))
(let ((a!128 (not (= (ite a!124 ((_ extract 11 0) main@%_769_0) a!127) #x000)))
      (a!133 (ite (and (not (= a!123 #b101)) a!132)
                  (bvadd a!123 #b001)
                  (ite (= ((_ extract 3 0) main@%_783_0) #x0) #b000 a!123))))
(let ((a!129 (and (or (= ((_ extract 3 0) main@%_783_0) #x8)
                      (= ((_ extract 3 0) main@%_783_0) #xf))
                  (xor a!128 true)))
      (a!137 (ite (and a!128 a!136 (= ((_ extract 0 0) main@%_820_0) #b1))
                  #b1
                  #b0)))
(let ((a!134 (ite (and (not (= a!123 #b000)) (or a!129 (and a!130 a!131)))
                  (bvadd a!123 #b111)
                  a!133))
      (a!138 (ite a!135
                  ((_ extract 11 0) main@%_829_0)
                  (bvadd (ite a!124 ((_ extract 11 0) main@%_769_0) a!127)
                         ((_ sign_extend 11) a!137)))))
(let ((a!139 (and (or (= ((_ extract 3 0) main@%_843_0) #x8)
                      (= ((_ extract 3 0) main@%_843_0) #xf))
                  (xor (not (= a!138 #x000)) true)))
      (a!143 (ite (and (not (= a!134 #b101)) a!142)
                  (bvadd a!134 #b001)
                  (ite (= ((_ extract 3 0) main@%_843_0) #x0) #b000 a!134)))
      (a!147 (ite (and (not (= a!138 #x000))
                       a!146
                       (= ((_ extract 0 0) main@%_880_0) #b1))
                  #b1
                  #b0)))
(let ((a!144 (ite (and (not (= a!134 #b000)) (or a!139 (and a!140 a!141)))
                  (bvadd a!134 #b111)
                  a!143))
      (a!148 (= (ite a!145
                     ((_ extract 11 0) main@%_889_0)
                     (bvadd a!138 ((_ sign_extend 11) a!147)))
                #x000)))
(let ((a!149 (and (or (= ((_ extract 3 0) main@%_903_0) #x8)
                      (= ((_ extract 3 0) main@%_903_0) #xf))
                  (xor (not a!148) true)))
      (a!153 (ite (and (not (= a!144 #b101)) a!152)
                  (bvadd a!144 #b001)
                  (ite (= ((_ extract 3 0) main@%_903_0) #x0) #b000 a!144)))
      (a!157 (ite (and (not a!148) a!156 (= ((_ extract 0 0) main@%_940_0) #b1))
                  #b1
                  #b0)))
(let ((a!154 (ite (and (not (= a!144 #b000)) (or a!149 (and a!150 a!151)))
                  (bvadd a!144 #b111)
                  a!153))
      (a!158 (bvadd (ite a!145
                         ((_ extract 11 0) main@%_889_0)
                         (bvadd a!138 ((_ sign_extend 11) a!147)))
                    ((_ sign_extend 11) a!157))))
(let ((a!159 (not (= (ite a!155 ((_ extract 11 0) main@%_949_0) a!158) #x000)))
      (a!164 (ite (and (not (= a!154 #b101)) a!163)
                  (bvadd a!154 #b001)
                  (ite (= ((_ extract 3 0) main@%_963_0) #x0) #b000 a!154))))
(let ((a!160 (and (or (= ((_ extract 3 0) main@%_963_0) #x8)
                      (= ((_ extract 3 0) main@%_963_0) #xf))
                  (xor a!159 true)))
      (a!168 (ite (and a!159 a!167 (= ((_ extract 0 0) main@%_1000_0) #b1))
                  #b1
                  #b0)))
(let ((a!165 (ite (and (not (= a!154 #b000)) (or a!160 (and a!161 a!162)))
                  (bvadd a!154 #b111)
                  a!164))
      (a!169 (ite a!166
                  ((_ extract 11 0) main@%_1009_0)
                  (bvadd (ite a!155 ((_ extract 11 0) main@%_949_0) a!158)
                         ((_ sign_extend 11) a!168)))))
(let ((a!170 (and (or (= ((_ extract 3 0) main@%_1023_0) #x8)
                      (= ((_ extract 3 0) main@%_1023_0) #xf))
                  (xor (not (= a!169 #x000)) true)))
      (a!174 (ite (and (not (= a!165 #b101)) a!173)
                  (bvadd a!165 #b001)
                  (ite (= ((_ extract 3 0) main@%_1023_0) #x0) #b000 a!165)))
      (a!178 (ite (and (not (= a!169 #x000))
                       a!177
                       (= ((_ extract 0 0) main@%_1060_0) #b1))
                  #b1
                  #b0)))
(let ((a!175 (ite (and (not (= a!165 #b000)) (or a!170 (and a!171 a!172)))
                  (bvadd a!165 #b111)
                  a!174))
      (a!179 (= (ite a!176
                     ((_ extract 11 0) main@%_1069_0)
                     (bvadd a!169 ((_ sign_extend 11) a!178)))
                #x000)))
(let ((a!180 (and (or (= ((_ extract 3 0) main@%_1083_0) #x8)
                      (= ((_ extract 3 0) main@%_1083_0) #xf))
                  (xor (not a!179) true)))
      (a!184 (ite (and (not (= a!175 #b101)) a!183)
                  (bvadd a!175 #b001)
                  (ite (= ((_ extract 3 0) main@%_1083_0) #x0) #b000 a!175)))
      (a!188 (ite (and (not a!179)
                       a!187
                       (= ((_ extract 0 0) main@%_1120_0) #b1))
                  #b1
                  #b0)))
(let ((a!185 (ite (and (not (= a!175 #b000)) (or a!180 (and a!181 a!182)))
                  (bvadd a!175 #b111)
                  a!184))
      (a!189 (bvadd (ite a!176
                         ((_ extract 11 0) main@%_1069_0)
                         (bvadd a!169 ((_ sign_extend 11) a!178)))
                    ((_ sign_extend 11) a!188))))
(let ((a!190 (and (= (ite a!186 ((_ extract 11 0) main@%_1123_0) a!189) #x000)
                  (or (= ((_ extract 3 0) main@%_1129_0) #x8)
                      (= ((_ extract 3 0) main@%_1129_0) #xf))))
      (a!194 (ite (and (not (= a!185 #b101)) a!193)
                  (bvadd a!185 #b001)
                  (ite (= ((_ extract 3 0) main@%_1129_0) #x0) #b000 a!185))))
(let ((a!195 (ite (and (not (= a!185 #b000)) (or a!190 (and a!191 a!192)))
                  (bvadd a!185 #b111)
                  a!194)))
(let ((a!196 (xor (or (not (= a!185 #b110)) (= a!195 #b111)) true)))
(let ((a!197 (ite (or (not (= a!175 #b110)) (= a!185 #b111))
                  (and true a!196)
                  true)))
(let ((a!198 (ite (or (not (= a!165 #b110)) (= a!175 #b111)) a!197 true)))
(let ((a!199 (ite (or (not (= a!154 #b110)) (= a!165 #b111)) a!198 true)))
(let ((a!200 (ite (or (not (= a!144 #b110)) (= a!154 #b111)) a!199 true)))
(let ((a!201 (ite (or (not (= a!134 #b110)) (= a!144 #b111)) a!200 true)))
(let ((a!202 (ite (or (not (= a!123 #b110)) (= a!134 #b111)) a!201 true)))
(let ((a!203 (ite (or (not (= a!113 #b110)) (= a!123 #b111)) a!202 true)))
(let ((a!204 (ite (or (not (= a!103 #b110)) (= a!113 #b111)) a!203 true)))
(let ((a!205 (ite (or (not (= a!92 #b110)) (= a!103 #b111)) a!204 true)))
(let ((a!206 (ite (or (not (= a!82 #b110)) (= a!92 #b111)) a!205 true)))
(let ((a!207 (ite (or (not (= a!72 #b110)) (= a!82 #b111)) a!206 true)))
(let ((a!208 (ite (or (not (= a!61 #b110)) (= a!72 #b111)) a!207 true)))
(let ((a!209 (ite (or (not (= a!51 #b110)) (= a!61 #b111)) a!208 true)))
(let ((a!210 (ite (or (not (= a!41 #b110)) (= a!51 #b111)) a!209 true)))
(let ((a!211 (ite (or (not (= a!30 #b110)) (= a!41 #b111)) a!210 true)))
  (ite (or (not (= a!20 #b110)) (= a!30 #b111)) a!211 true))))))))))))))))))))))))))))))))))))))))))))))))))))))))))))))))

(check-sat)
